(set-logic QF_S)
(set-option :strings-exp true)
(set-option :produce-models true)
(declare-fun sigmaStar_0 () String)
(declare-fun literal_6 () String)
(assert (= literal_6 "\x3c\x62\x3e\x71\x75\x65\x73\x74\x69\x6f\x6e\x74\x79\x70\x65\x3a\x3c\x2f\x62\x3e\x20\x5c\x6e"))
(assert (str.in.re literal_6 (re.++ (re.* re.allchar) (re.++ (str.to.re "\x5c\x3c\x53\x43\x52\x49\x50\x54") (re.* re.allchar)))))
(check-sat)
(get-model)
